
Log started (V11.0.0) Thu Apr 17 05:23:41 2008

Tried aggregator 1 time.
Reduced MIP has 220 rows, 4001 columns, and 8020 nonzeros.
Presolve time =    0.03 sec.
Clique table members: 200.
MIP emphasis: balance optimality and feasibility.
MIP search method: dynamic search.
Parallel mode: none, using 1 thread.
Root relaxation solution time =    0.09 sec.

        Nodes                                         Cuts/
   Node  Left     Objective  IInf  Best Integer     Best Node    ItCnt     Gap

*     0+    0                        11289.0000      142.6650      475   98.74%
*     0+    0                          156.0000      142.6650      475    8.55%
      0     0      143.0000    41      156.0000      Fract: 7      487    8.33%
*     0+    0                          154.0000      143.0000      487    7.14%
      0     0      143.0000    42      154.0000     Covers: 2      507    7.14%
*     0+    0                          153.0000      143.0000      507    6.54%
      0     0      143.0000    42      153.0000     Covers: 3      536    6.54%
*     0+    0                          151.0000      143.0000      536    5.30%
      0     2      143.0000    42      151.0000      143.0000      536    5.30%
*    10+   10                          150.0000      143.0000      929    4.67%
    100    85      148.4058    38      150.0000      143.0000     4358    4.67%
*   135+   92                          149.0000      143.0000     5683    4.03%
    200   142      145.0000    35      149.0000      143.0000     8597    4.03%
    300   216      145.0000    37      149.0000      143.0000    13766    4.03%
    400   278      146.0000    37      149.0000      143.0000    20002    4.03%
    500   339      146.0000    38      149.0000      143.0000    26308    4.03%
*   511+  318                          148.0000      143.0000    26716    3.38%
*   513+  213                          147.0000      143.0920    27943    2.66%
*   513+  141                          146.0000      143.0920    27943    1.99%
    600   154      145.0000    39      146.0000      144.0000    32031    1.37%
    700   170      145.0000    32      146.0000      144.0000    35892    1.37%
    800   213      145.0000    41      146.0000      144.0000    40288    1.37%
    900   273      144.0000   111      146.0000      144.0000    47477    1.37%
   1000   363      145.0000    91      146.0000      144.0000    53367    1.37%
Elapsed time =  20.77 sec. (tree size =  1.67 MB, solutions = 10)
   1100   442      145.0000   115      146.0000      144.0000    61222    1.37%
   1200   530      145.0000    65      146.0000      144.0000    68782    1.37%
   1300   602      145.0000    78      146.0000      144.0000    79034    1.37%
   1400   686      145.0000    83      146.0000      144.0000    87595    1.37%
   1500   764      145.0000   101      146.0000      144.0000    96028    1.37%
   1600   844      145.0000    86      146.0000      144.0000   105596    1.37%
   1700   901      145.0000   101      146.0000      144.0000   122811    1.37%
   1800   959      144.9936   185      146.0000      144.0000   139450    1.37%
   1900  1042      145.0000   129      146.0000      144.0000   150025    1.37%
   2000  1112      145.0000   119      146.0000      144.0000   163630    1.37%
Elapsed time =  50.05 sec. (tree size =  8.12 MB, solutions = 10)
   2100  1187      144.0000   131      146.0000      144.0000   175864    1.37%
   2200  1269      145.0000    92      146.0000      144.0000   185957    1.37%
   2300  1343      145.0000   165      146.0000      144.0000   197320    1.37%
   2400  1420      145.0000   118      146.0000      144.0000   209598    1.37%
   2500  1490        cutoff            146.0000      144.0000   220303    1.37%
   2600  1571      145.0000   146      146.0000      144.0000   231363    1.37%
   2700  1648      145.0000    73      146.0000      144.0000   243764    1.37%
   2800  1728      145.0000    87      146.0000      144.0000   252302    1.37%
   2900  1816      145.0000    71      146.0000      144.0000   259593    1.37%
   3000  1909      145.0000    68      146.0000      144.0000   264765    1.37%
Elapsed time =  85.06 sec. (tree size = 16.63 MB, solutions = 10)
   3100  1996      145.0000    65      146.0000      144.0000   272273    1.37%
   3200  2087      145.0000    97      146.0000      144.0000   278610    1.37%
   3300  2173      145.0000   104      146.0000      144.0000   287686    1.37%
   3400  2256      145.0000    96      146.0000      144.0000   298417    1.37%
   3500  2340      145.0000   117      146.0000      144.0000   309268    1.37%
   3600  2415      145.0000   121      146.0000      144.0000   319961    1.37%
   3700  2487      145.0000   101      146.0000      144.0000   334010    1.37%
   3800  2573      145.0000    73      146.0000      144.0000   343120    1.37%
   3900  2636      145.0000   111      146.0000      144.0000   358883    1.37%
   4000  2711      145.0000   101      146.0000      144.0000   369660    1.37%
Elapsed time = 124.45 sec. (tree size = 25.93 MB, solutions = 10)
   4100  2789      145.0000    98      146.0000      144.0000   382890    1.37%
   4200  2868      145.0000   173      146.0000      144.0000   394834    1.37%
   4300  2950      145.0000    75      146.0000      144.0000   404498    1.37%
   4400  3036      145.0000   117      146.0000      144.0000   413337    1.37%
   4500  3129      145.0000    68      146.0000      144.0000   419982    1.37%
   4600  3217      145.0000    91      146.0000      144.0000   429083    1.37%
   4700  3298      145.0000    73      146.0000      144.0000   438931    1.37%
   4800  3388      145.0000    86      146.0000      144.0000   447233    1.37%
   4900  3472      145.0000   135      146.0000      144.0000   455953    1.37%
   5000  3557      145.0000   103      146.0000      144.0000   466198    1.37%
Elapsed time = 164.67 sec. (tree size = 36.84 MB, solutions = 10)
   5100  3645      145.0000    78      146.0000      144.0000   474764    1.37%
*  5133   116      integral     0      145.0000      144.0000   477708    0.69%
   5200   155      144.0000   159      145.0000      144.0000   494314    0.69%
   5300   185      144.0000   162      145.0000      144.0000   537805    0.69%
   5400   205    infeasible            145.0000      144.0000   575231    0.69%
   5500   209    infeasible            145.0000      144.0000   628853    0.69%
   5600   213      144.0000   171      145.0000      144.0000   682464    0.69%
   5700   237      144.0000   164      145.0000      144.0000   721451    0.69%
   5800   241      144.0000   180      145.0000      144.0000   766983    0.69%
   5900   243      144.0000   185      145.0000      144.0000   812953    0.69%
   6000   239      144.0000   199      145.0000      144.0000   858470    0.69%
Elapsed time = 341.55 sec. (tree size =  3.49 MB, solutions = 11)
   6100   253      144.0000   174      145.0000      144.0000   902977    0.69%
   6200   261    infeasible            145.0000      144.0000   941566    0.69%
   6300   267      144.0000   201      145.0000      144.0000   979371    0.69%
   6400   259    infeasible            145.0000      144.0000  1021789    0.69%
   6500   257      144.0000   185      145.0000      144.0000  1062839    0.69%
   6600   251      144.0000   158      145.0000      144.0000  1105600    0.69%
   6700   255    infeasible            145.0000      144.0000  1147531    0.69%
   6800   225    infeasible            145.0000      144.0000  1199992    0.69%
   6900   185    infeasible            145.0000      144.0000  1263334    0.69%
   7000   161      144.0000   202      145.0000      144.0000  1308974    0.69%
Elapsed time = 563.42 sec. (tree size =  2.54 MB, solutions = 11)
   7100   125    infeasible            145.0000      144.0000  1371240    0.69%
   7200   139    infeasible            145.0000      144.0000  1406286    0.69%
   7300   129      144.0000   179      145.0000      144.0000  1452098    0.69%
   7400   109    infeasible            145.0000      144.0000  1493604    0.69%
   7500    93    infeasible            145.0000      144.0000  1542839    0.69%
   7600    67      144.0000   209      145.0000      144.0000  1594741    0.69%
   7700    77      144.0000   146      145.0000      144.0000  1627321    0.69%
   7800    87    infeasible            145.0000      144.0000  1658555    0.69%
   7900   101      144.0000   178      145.0000      144.0000  1692152    0.69%
   8000   101    infeasible            145.0000      144.0000  1730280    0.69%
Elapsed time = 764.11 sec. (tree size =  1.65 MB, solutions = 11)
   8100    79      144.0000   164      145.0000      144.0000  1778392    0.69%
   8200   103      144.0000   163      145.0000      144.0000  1811068    0.69%
   8300    85    infeasible            145.0000      144.0000  1853671    0.69%
   8400    27      144.0000   165      145.0000      144.0000  1911601    0.69%
   8500    19    infeasible            145.0000      144.0000  1956080    0.69%
   8600    21      144.0000   199      145.0000      144.0000  1992165    0.69%

Cover cuts applied:  1073
Mixed integer rounding cuts applied:  23
Zero-half cuts applied:  2
Gomory fractional cuts applied:  2

Solution pool: 11 solutions saved.

MIP - Integer optimal solution:  Objective = 1.4500000000e+002
Solution time =  903.45 sec.  Iterations = 2023578  Nodes = 8660


Incumbent solution
Variable Name           Solution Value
Cmax                        145.000000
X_1_15                        1.000000
X_2_9                         1.000000
X_3_12                        1.000000
X_4_3                         1.000000
X_5_10                        1.000000
X_6_18                        1.000000
X_7_8                         1.000000
X_8_5                         1.000000
X_9_17                        1.000000
X_10_16                       1.000000
X_11_13                       1.000000
X_12_2                        1.000000
X_13_4                        1.000000
X_14_19                       1.000000
X_15_2                        1.000000
X_16_4                        1.000000
X_17_14                       1.000000
X_18_18                       1.000000
X_19_3                        1.000000
X_20_20                       1.000000
X_21_17                       1.000000
X_22_18                       1.000000
X_23_11                       1.000000
X_24_15                       1.000000
X_25_7                        1.000000
X_26_16                       1.000000
X_27_1                        1.000000
X_28_16                       1.000000
X_29_6                        1.000000
X_30_19                       1.000000
X_31_6                        1.000000
X_32_19                       1.000000
X_33_1                        1.000000
X_34_4                        1.000000
X_35_2                        1.000000
X_36_17                       1.000000
X_37_16                       1.000000
X_38_2                        1.000000
X_39_20                       1.000000
X_40_11                       1.000000
X_41_18                       1.000000
X_42_12                       1.000000
X_43_12                       1.000000
X_44_9                        1.000000
X_45_10                       1.000000
X_46_19                       1.000000
X_47_6                        1.000000
X_48_17                       1.000000
X_49_6                        1.000000
X_50_15                       1.000000
X_51_7                        1.000000
X_52_7                        1.000000
X_53_6                        1.000000
X_54_15                       1.000000
X_55_2                        1.000000
X_56_5                        1.000000
X_57_5                        1.000000
X_58_14                       1.000000
X_59_8                        1.000000
X_60_17                       1.000000
X_61_7                        1.000000
X_62_17                       1.000000
X_63_9                        1.000000
X_64_11                       1.000000
X_65_5                        1.000000
X_66_14                       1.000000
X_67_7                        1.000000
X_68_16                       1.000000
X_69_1                        1.000000
X_70_18                       1.000000
X_71_13                       1.000000
X_72_7                        1.000000
X_73_7                        1.000000
X_74_7                        1.000000
X_75_4                        1.000000
X_76_20                       1.000000
X_77_15                       1.000000
X_78_10                       1.000000
X_79_14                       1.000000
X_80_3                        1.000000
X_81_10                       1.000000
X_82_9                        1.000000
X_83_20                       1.000000
X_84_12                       1.000000
X_85_13                       1.000000
X_86_10                       1.000000
X_87_10                       1.000000
X_88_6                        1.000000
X_89_5                        1.000000
X_90_2                        1.000000
X_91_18                       1.000000
X_92_15                       1.000000
X_93_16                       1.000000
X_94_16                       1.000000
X_95_20                       1.000000
X_96_12                       1.000000
X_97_13                       1.000000
X_98_16                       1.000000
X_99_10                       1.000000
X_100_11                      1.000000
X_101_11                      1.000000
X_102_3                       1.000000
X_103_20                      1.000000
X_104_5                       1.000000
X_105_14                      1.000000
X_106_8                       1.000000
X_107_3                       1.000000
X_108_8                       1.000000
X_109_15                      1.000000
X_110_7                       1.000000
X_111_1                       1.000000
X_112_19                      1.000000
X_113_12                      1.000000
X_114_11                      1.000000
X_115_3                       1.000000
X_116_13                      1.000000
X_117_17                      1.000000
X_118_6                       1.000000
X_119_9                       1.000000
X_120_4                       1.000000
X_121_6                       1.000000
X_122_12                      1.000000
X_123_4                       1.000000
X_124_5                       1.000000
X_125_20                      1.000000
X_126_16                      1.000000
X_127_6                       1.000000
X_128_8                       1.000000
X_129_10                      1.000000
X_130_9                       1.000000
X_131_16                      1.000000
X_132_9                       1.000000
X_133_9                       1.000000
X_134_3                       1.000000
X_135_14                      1.000000
X_136_8                       1.000000
X_137_6                       1.000000
X_138_20                      1.000000
X_139_17                      1.000000
X_140_11                      1.000000
X_141_1                       1.000000
X_142_15                      1.000000
X_143_8                       1.000000
X_144_5                       1.000000
X_145_19                      1.000000
X_146_1                       1.000000
X_147_6                       1.000000
X_148_13                      1.000000
X_149_4                       1.000000
X_150_4                       1.000000
X_151_10                      1.000000
X_152_9                       1.000000
X_153_4                       1.000000
X_154_11                      1.000000
X_155_2                       1.000000
X_156_4                       1.000000
X_157_14                      1.000000
X_158_20                      1.000000
X_159_17                      1.000000
X_160_9                       1.000000
X_161_7                       1.000000
X_162_19                      1.000000
X_163_15                      1.000000
X_164_1                       1.000000
X_165_3                       1.000000
X_166_18                      1.000000
X_167_8                       1.000000
X_168_20                      1.000000
X_169_2                       1.000000
X_170_8                       1.000000
X_171_4                       1.000000
X_172_11                      1.000000
X_173_7                       1.000000
X_174_2                       1.000000
X_175_20                      1.000000
X_176_10                      1.000000
X_177_7                       1.000000
X_178_14                      1.000000
X_179_5                       1.000000
X_180_14                      1.000000
X_181_19                      1.000000
X_182_8                       1.000000
X_183_2                       1.000000
X_184_11                      1.000000
X_185_1                       1.000000
X_186_2                       1.000000
X_187_16                      1.000000
X_188_19                      1.000000
X_189_1                       1.000000
X_190_13                      1.000000
X_191_12                      1.000000
X_192_13                      1.000000
X_193_9                       1.000000
X_194_15                      1.000000
X_195_13                      1.000000
X_196_18                      1.000000
X_197_12                      1.000000
X_198_1                       1.000000
X_199_13                      1.000000
X_200_18                      1.000000
All other variables in the range 1-4001 are 0.
